<number of tasks>
100

<cycle time>
1000

<order strength>
0.899


<task times>
1 576
2 613
3 490
4 551
5 612
6 464
7 277
8 579
9 299
10 450
11 658
12 399
13 554
14 492
15 302
16 473
17 584
18 775
19 322
20 497
21 347
22 545
23 701
24 517
25 352
26 627
27 570
28 579
29 306
30 451
31 576
32 649
33 645
34 480
35 503
36 605
37 641
38 644
39 625
40 754
41 600
42 486
43 560
44 482
45 560
46 527
47 387
48 645
49 580
50 624
51 508
52 472
53 539
54 352
55 415
56 361
57 463
58 560
59 407
60 511
61 763
62 223
63 395
64 601
65 578
66 460
67 403
68 658
69 564
70 490
71 489
72 650
73 422
74 430
75 455
76 618
77 492
78 508
79 683
80 422
81 564
82 527
83 555
84 559
85 578
86 396
87 553
88 667
89 584
90 528
91 403
92 435
93 534
94 550
95 442
96 508
97 339
98 532
99 464
100 512

<precedence relations>
1,5
1,6
1,7
1,8
2,5
2,6
2,7
2,8
3,5
3,6
3,7
3,8
4,5
4,6
4,7
4,8
5,9
5,10
5,11
5,12
6,9
6,10
6,11
6,12
7,9
7,10
7,11
7,12
8,9
8,10
8,11
8,12
9,13
9,14
10,13
10,14
11,13
11,14
12,13
12,14
13,15
13,16
13,17
13,18
13,19
14,15
14,16
14,17
14,18
14,19
15,20
16,20
17,20
18,20
19,20
20,21
20,22
20,23
20,24
21,25
21,26
21,27
21,28
21,29
22,25
22,26
22,27
22,28
22,29
23,25
23,26
23,27
23,28
23,29
24,25
24,26
24,27
24,28
24,29
25,30
25,31
25,32
26,30
26,31
26,32
27,30
27,31
27,32
28,30
28,31
28,32
29,30
29,31
30,58
31,33
31,34
31,35
32,33
32,34
32,35
33,36
33,37
33,38
34,36
34,37
34,38
35,36
35,37
35,38
36,39
36,40
36,41
36,42
37,39
37,40
37,41
37,42
37,43
38,39
38,40
38,41
38,42
39,44
39,45
40,45
41,45
42,46
43,44
44,47
44,50
45,49
45,52
46,47
46,48
46,49
47,51
47,52
48,50
49,50
49,51
50,61
50,62
51,53
51,54
51,55
52,53
52,54
53,59
53,60
54,57
55,56
56,58
56,59
56,60
57,58
57,59
57,60
58,61
58,62
59,61
59,62
59,63
60,61
60,62
60,63
61,65
61,69
62,64
62,65
62,66
63,74
63,85
64,68
65,67
66,67
67,70
67,71
67,81
68,69
68,74
68,78
69,73
69,75
70,74
70,84
70,89
71,72
71,76
72,85
72,93
72,96
73,77
73,79
73,80
74,77
74,92
74,97
75,80
76,77
76,78
76,79
80,81
80,82
81,83
81,84
81,85
81,86
82,85
82,99
83,88
83,90
83,98
84,87
84,97
85,88
85,89
86,87
86,89
87,93
87,100
88,95
88,97
89,91
89,92
89,94
90,96
90,100
91,98
93,98
93,99
94,100
96,97

<end>
